instances/p1/p1_10_8-0.dzn
Alphabet = {A,C,G,T};
ns = 10;
nc = 8;
neighbours = [| I(A),I(A),I(C),I(A),I(C),I(A),I(A),I(A) | I(A),I(A),I(A),I(A),I(A),I(A),I(A),I(A) | I(A),I(A),I(C),I(C),I(A),I(G),I(A),I(C) | I(A),I(A),I(C),I(A),I(A),I(C),I(C),I(A) | I(A),I(A),I(C),I(A),I(A),I(C),I(A),I(C) | I(A),I(C),I(A),I(A),I(C),I(A),I(A),I(C) | I(C),I(A),I(A),I(C),I(C),I(C),I(C),I(C) | I(A),I(C),I(G),I(A),I(C),I(C),I(C),I(G) | I(A),I(A),I(A),I(A),I(A),I(A),I(A),I(A) | I(A),I(A),I(A),I(C),I(C),I(A),I(A),I(A) |];
