instances/p1/p1_10_8-0.txt
{
	"num_strings": 10,
	"alphabet": "ACGT",
	"strings": [
		"AACACAAA",
		"AAAAAAAA",
		"AACCAGAC",
		"AACAACCA",
		"AACAACAC",
		"ACAACAAC",
		"CAACCCCC",
		"ACGACCCG",
		"AAAAAAAA",
		"AAACCAAA"
	],
	"str_length":[8,8,8,8,8,8,8,8,8,8]
}